% Archivo de datos generado automáticamente
% MinExt - Minimización del Extremismo

n = 15;
m = 5;

% Distribución inicial de personas por opinión
p = [8, 2, 0, 1, 4];

% Valores de extremismo por opinión
ext = [0.503, 0.387, 0.059, 0.269, 0.052];

% Costos extra por mover hacia opinión inicialmente vacía
ce = [9.562, 10.534, 6.565, 10.25, 12.903];

% Matriz de costos de movimiento entre opiniones
c = array2d(1..m, 1..m, [0.0, 1.707, 1.406, 3.562, 3.79, 1.963, 0.0, 2.124, 4.666, 3.095, 1.24, 4.554, 0.0, 3.764, 2.121, 4.595, 2.582, 2.14, 0.0, 2.591, 4.937, 4.785, 3.506, 4.47, 0.0]);

% Restricciones de recursos
ct = 141.96;
maxM = 25;
